Maximize
  2000 x_Pi_TV + 5000 x_Beta_Video + 9000 x_Gamma_Live
Subject To
  c1: x_Beta_Video <= 8
  c2: 0.6666666666666667 x_Gamma_Live - 0.3333333333333333 x_Pi_TV - 0.3333333333333333 x_Beta_Video <= 0
  c3: 0.8 x_Pi_TV - 0.2 x_Beta_Video - 0.2 x_Gamma_Live >= 0
  c4: 1200 x_Pi_TV + 2000 x_Beta_Video + 4000 x_Gamma_Live <= 20000
End